************************************************************************
file with basedata            : md351_.bas
initial value random generator: 604028122
************************************************************************
projects                      :  1
jobs (incl. supersource/sink ):  22
horizon                       :  142
RESOURCES
  - renewable                 :  2   R
  - nonrenewable              :  2   N
  - doubly constrained        :  0   D
************************************************************************
PROJECT INFORMATION:
pronr.  #jobs rel.date duedate tardcost  MPM-Time
    1     20      0       20       14       20
************************************************************************
PRECEDENCE RELATIONS:
jobnr.    #modes  #successors   successors
   1        1          3           2   3   4
   2        3          2           9  21
   3        3          3           5   6  11
   4        3          3           7   8  20
   5        3          3          10  14  15
   6        3          3          10  14  19
   7        3          3           9  17  18
   8        3          2           9  18
   9        3          1          19
  10        3          1          16
  11        3          2          12  14
  12        3          2          13  18
  13        3          2          15  16
  14        3          1          17
  15        3          2          20  21
  16        3          2          17  20
  17        3          1          21
  18        3          1          19
  19        3          1          22
  20        3          1          22
  21        3          1          22
  22        1          0        
************************************************************************
REQUESTS/DURATIONS:
jobnr. mode duration  R 1  R 2  N 1  N 2
------------------------------------------------------------------------
  1      1     0       0    0    0    0
  2      1     1       3    2    0    6
         2     3       3    1    0    5
         3     6       2    1    0    4
  3      1     5       8    6    3    0
         2     8       5    5    0    7
         3    10       4    5    0    4
  4      1     1       8    4    0   10
         2     1       7    4    6    0
         3    10       6    4    0   10
  5      1     2      10    8    0    4
         2     2      10    7    4    0
         3     7      10    2    4    0
  6      1     6       1    8    9    0
         2     8       1    7    0    5
         3    10       1    6    0    4
  7      1     3       8    9    6    0
         2     8       7    6    6    0
         3    10       6    5    6    0
  8      1     1      10    8    0   10
         2     6       6    8    0    9
         3     9       3    6    0    8
  9      1     1      10    8    0    3
         2     2      10    7    5    0
         3     3      10    6    5    0
 10      1     2       4    5    0    3
         2     2       4    2    0    4
         3     2       4    5    6    0
 11      1     2      10    8    7    0
         2     3       6    8    7    0
         3     4       5    8    0    4
 12      1     1       6    5    9    0
         2     4       6    4    9    0
         3     8       4    4    0    5
 13      1     5       9    7    8    0
         2     7       7    7    6    0
         3     9       6    7    4    0
 14      1     2       8    4    8    0
         2     6       4    3    7    0
         3    10       3    2    5    0
 15      1     1       8    2    6    0
         2     5       7    2    0    2
         3     7       6    2    0    2
 16      1     1       7   10    2    0
         2     4       7    9    0    8
         3     4       6   10    2    0
 17      1     1       7    8    5    0
         2     1       7    8    0    8
         3     4       7    5    0    6
 18      1     3       7    5    9    0
         2     4       6    4    8    0
         3     5       6    2    7    0
 19      1     4       7    6    0    8
         2     5       7    5    6    0
         3     7       6    4    0    4
 20      1     3       8    7    0    3
         2     4       7    7   10    0
         3    10       6    6    6    0
 21      1     5      10    7    0    7
         2     5      10    7    5    0
         3     7       9    6    3    0
 22      1     0       0    0    0    0
************************************************************************
RESOURCEAVAILABILITIES:
  R 1  R 2  N 1  N 2
   24   20  114   94
************************************************************************
MAXIMAL LAGS:
from  to  type  delay
    1   22   ES      0
    1    2   ES      0
    2   22   ES      0
    1    3   ES      0
    3   22   ES      0
    1    4   ES      0
    4   22   ES      0
    1    5   ES      0
    5   22   ES      0
    1    6   ES      0
    6   22   ES      0
    1    7   ES      0
    7   22   ES      0
    1    8   ES      0
    8   22   ES      0
    1    9   ES      0
    9   22   ES      0
    1   10   ES      0
   10   22   ES      0
    1   11   ES      0
   11   22   ES      0
    1   12   ES      0
   12   22   ES      0
    1   13   ES      0
   13   22   ES      0
    1   14   ES      0
   14   22   ES      0
    1   15   ES      0
   15   22   ES      0
    1   16   ES      0
   16   22   ES      0
    1   17   ES      0
   17   22   ES      0
    1   18   ES      0
   18   22   ES      0
    1   19   ES      0
   19   22   ES      0
    1   20   ES      0
   20   22   ES      0
    1   21   ES      0
   21   22   ES      0
    1   22   ES      0
    2    9   SS     12
    2    9   SE      9
    2    9   ES      7
    2    9   EE     11
    2   21   SS      2
    2   21   SE      6
    2   21   ES     -1
    2   21   EE      2
    3    5   SS     -7
    3    5   SE      5
    3    5   ES     -1
    3    5   EE     12
    3    6   SS      3
    3    6   SE     -2
    3    6   ES      8
    3    6   EE     10
    3   11   SS      6
    3   11   SE     -1
    3   11   ES     12
    3   11   EE      4
    4    7   SS     -8
    4    7   SE      4
    4    7   ES     11
    4    7   EE     -9
    4    8   SS      6
    4    8   SE    -11
    4    8   ES     -7
    4    8   EE     -8
    4   20   SS    -10
    4   20   SE      2
    4   20   ES     11
    4   20   EE      6
    5   10   SS      2
    5   10   SE     11
    5   10   ES      5
    5   10   EE      7
    5   14   SS      9
    5   14   SE      9
    5   14   ES      8
    5   14   EE    -10
    5   15   SS     -8
    5   15   SE     -3
    5   15   ES      4
    5   15   EE      5
    6   10   SS     -6
    6   10   SE      8
    6   10   ES      7
    6   10   EE      2
    6   14   SS    -10
    6   14   SE      2
    6   14   ES    -12
    6   14   EE     -2
    6   19   SS     12
    6   19   SE      6
    6   19   ES      4
    6   19   EE     -3
    7    9   SS     -4
    7    9   SE     -2
    7    9   ES     -9
    7    9   EE     -4
    7   17   SS     -6
    7   17   SE      1
    7   17   ES      3
    7   17   EE     12
    7   18   SS     -7
    7   18   SE      4
   18    7   SE      0
    7   18   ES      0
    7   18   EE      4
    8    9   SS     -9
    8    9   SE    -10
    8    9   ES     -7
    8    9   EE     11
    8   18   SS     -6
    8   18   SE      8
    8   18   ES    -12
    8   18   EE     -6
    9   19   SS      4
    9   19   SE      4
    9   19   ES     -2
    9   19   EE     12
   10   16   SS      1
   10   16   SE      5
   10   16   ES     -9
   10   16   EE     12
   11   12   SS    -10
   11   12   SE      6
   11   12   ES     -5
   11   12   EE      7
   11   14   SS      3
   11   14   SE      5
   11   14   ES    -10
   11   14   EE     -4
   12   13   SS     -2
   12   13   SE      6
   12   13   ES    -12
   12   13   EE    -12
   12   18   SS     11
   12   18   SE      7
   12   18   ES      9
   12   18   EE     11
   13   15   SS      6
   13   15   SE      8
   13   15   ES     -7
   13   15   EE     -9
   13   16   SS      2
   13   16   SE      2
   13   16   ES      6
   13   16   EE    -11
   14   17   SS     -1
   14   17   SE     -2
   14   17   ES     -8
   14   17   EE      5
   15   20   SS      1
   15   20   SE      1
   15   20   ES      6
   15   20   EE     -6
   15   21   SS     -5
   15   21   SE     -1
   15   21   ES    -10
   15   21   EE      8
   16   17   SS      9
   16   17   SE     -2
   16   17   ES     11
   16   17   EE      4
   16   20   SS      5
   16   20   SE     12
   16   20   ES    -12
   16   20   EE     12
   17   21   SS     11
   17   21   SE      2
   17   21   ES     11
   17   21   EE    -12
   18   19   SS     12
   18   19   SE      9
   18   19   ES     -2
   18   19   EE     -6
************************************************************************
